
        $ From http://www.csplib.org/Problems/prob009/data/helmut.pdf
        $ Problem number 6
        $ Sequence length : 22
        language ESSENCE' 1.0
        letting sizemaster be 147
        letting sizes be sequence(2,4,8,10,11,12,15,19,21,22,23,25,26,32,34,37,41,43,45,47,55,59)
        